 vasp.6.3.2 27Jun22 (build Aug 29 2022 23:59:14) complex
 executed on              LinuxNV date 2023.05.26  07:44:20

 INCAR:
   ALGO = Fast
   EDIFF = 0.0001
   EDIFFG = -0.05
   ENCUT = 500
   GGA = Pe
   IBRION = 2
   ISIF = 0
   ISMEAR = 1
   ISPIN = 2
   ISTART = 1
   ISYM = 0
   LASPH = True
   LCHARG = False
   LMAXMIX = 4
   LORBIT = 11
   LREAL = True
   LVTOT = False
   LWAVE = True
   MAGMOM = 64*5.0
   NCORE = 4
   NELM = 80
   NELMIN = 8
   NSW = 300
   PREC = Accurate
   SIGMA = 0.08000000000000002
   SYMPREC = 1e-10

 POTCAR:    PAW_PBE Pd 04Jan2005
 POTCAR:    PAW_PBE Pd 04Jan2005
   VRHFIN =Pd : s1 d9

   TITEL  = PAW_PBE Pd 04Jan2005
   POMASS =  106.420; ZVAL   =   10.000    mass and valenz
   ENMAX  =  250.925; ENMIN  =  188.194 eV

  PAW_PBE Pd 04Jan2005                  :

 POSCAR: Pd64
  positions in direct lattice
 exchange correlation table for  LEXCH =        8
   RHO(1)=    0.500       N(1)  =     2000
   RHO(2)=  100.500       N(2)  =     4000

 ion  position               nearest neighbor table
   1  0.000  0.250  0.525-  50 2.77  49 2.77  61 2.77  62 2.77   2 2.77   4 2.77   5 2.77  13 2.77
                            29 2.77  17 2.77  30 2.77  18 2.77
   2  0.000  0.500  0.525-  51 2.77  50 2.77  62 2.77  63 2.77   1 2.77   3 2.77   6 2.77  14 2.77
                            30 2.77  18 2.77  31 2.77  19 2.77
   3  0.000  0.750  0.525-  52 2.77  51 2.77  63 2.77  64 2.77   2 2.77   4 2.77   7 2.77  15 2.77
                            31 2.77  19 2.77  32 2.77  20 2.77
   4  0.000  0.000  0.525-  49 2.77  52 2.77  61 2.77  64 2.77   1 2.77   3 2.77   8 2.77  16 2.77
                            32 2.77  29 2.77  17 2.77  20 2.77
   5  0.250  0.250  0.525-  54 2.77  50 2.77  53 2.77  49 2.77   6 2.77   8 2.77   1 2.77   9 2.77
                            17 2.77  21 2.77  22 2.77  18 2.77
   6  0.250  0.500  0.525-  55 2.77  51 2.77  54 2.77  50 2.77   5 2.77   7 2.77   2 2.77  10 2.77
                            18 2.77  22 2.77  23 2.77  19 2.77
   7  0.250  0.750  0.525-  56 2.77  52 2.77  55 2.77  51 2.77   6 2.77   8 2.77   3 2.77  11 2.77
                            19 2.77  23 2.77  24 2.77  20 2.77
   8  0.250  0.000  0.525-  53 2.77  52 2.77  49 2.77  56 2.77   5 2.77   7 2.77   4 2.77  12 2.77
                            20 2.77  21 2.77  24 2.77  17 2.77
   9  0.500  0.250  0.525-  58 2.77  54 2.77  57 2.77  53 2.77  10 2.77  12 2.77   5 2.77  13 2.77
                            21 2.77  25 2.77  26 2.77  22 2.77
  10  0.500  0.500  0.525-  59 2.77  55 2.77  58 2.77  54 2.77   9 2.77  11 2.77   6 2.77  14 2.77
                            22 2.77  26 2.77  27 2.77  23 2.77
  11  0.500  0.750  0.525-  60 2.77  56 2.77  59 2.77  55 2.77  10 2.77  12 2.77   7 2.77  15 2.77
                            23 2.77  27 2.77  28 2.77  24 2.77
  12  0.500  0.000  0.525-  57 2.77  56 2.77  53 2.77  60 2.77   9 2.77  11 2.77   8 2.77  16 2.77
                            24 2.77  25 2.77  28 2.77  21 2.77
  13  0.750  0.250  0.525-  62 2.77  58 2.77  61 2.77  57 2.77  14 2.77  16 2.77   1 2.77   9 2.77
                            25 2.77  29 2.77  30 2.77  26 2.77
  14  0.750  0.500  0.525-  63 2.77  59 2.77  62 2.77  58 2.77  13 2.77  15 2.77   2 2.77  10 2.77
                            26 2.77  30 2.77  31 2.77  27 2.77
  15  0.750  0.750  0.525-  64 2.77  60 2.77  63 2.77  59 2.77  14 2.77  16 2.77   3 2.77  11 2.77
                            27 2.77  31 2.77  32 2.77  28 2.77
  16  0.750  0.000  0.525-  61 2.77  60 2.77  57 2.77  64 2.77  13 2.77  15 2.77   4 2.77  12 2.77
                            28 2.77  29 2.77  32 2.77  25 2.77
  17  0.125  0.125  0.575-  18 2.77  20 2.77  21 2.77  29 2.77   5 2.77   1 2.77   8 2.77   4 2.77

  18  0.125  0.375  0.575-  17 2.77  19 2.77  22 2.77  30 2.77   6 2.77   5 2.77   1 2.77   2 2.77

[...]

  48  0.000  0.750  0.425-  45 2.77  47 2.77  36 2.77  44 2.77  63 2.77  52 2.77  51 2.77  64 2.77

  49  0.125  0.125  0.475-   4 2.77   1 2.77   5 2.77   8 2.77  50 2.77  52 2.77  53 2.77  61 2.77
                            34 2.77  45 2.77  46 2.77  33 2.77
  50  0.125  0.375  0.475-   1 2.77   2 2.77   5 2.77   6 2.77  49 2.77  51 2.77  54 2.77  62 2.77
                            35 2.77  46 2.77  47 2.77  34 2.77
  51  0.125  0.625  0.475-   2 2.77   3 2.77   6 2.77   7 2.77  50 2.77  52 2.77  55 2.77  63 2.77
                            36 2.77  47 2.77  48 2.77  35 2.77
  52  0.125  0.875  0.475-   3 2.77   4 2.77   7 2.77   8 2.77  49 2.77  51 2.77  56 2.77  64 2.77
                            33 2.77  45 2.77  48 2.77  36 2.77
  53  0.375  0.125  0.475-   8 2.77   5 2.77   9 2.77  12 2.77  54 2.77  56 2.77  49 2.77  57 2.77
                            38 2.77  37 2.77  33 2.77  34 2.77
  54  0.375  0.375  0.475-   5 2.77   6 2.77   9 2.77  10 2.77  53 2.77  55 2.77  50 2.77  58 2.77
                            39 2.77  38 2.77  34 2.77  35 2.77
  55  0.375  0.625  0.475-   6 2.77   7 2.77  10 2.77  11 2.77  54 2.77  56 2.77  51 2.77  59 2.77
                            40 2.77  39 2.77  35 2.77  36 2.77
  56  0.375  0.875  0.475-   7 2.77   8 2.77  11 2.77  12 2.77  53 2.77  55 2.77  52 2.77  60 2.77
                            37 2.77  33 2.77  40 2.77  36 2.77
  57  0.625  0.125  0.475-  12 2.77   9 2.77  13 2.77  16 2.77  58 2.77  60 2.77  53 2.77  61 2.77
                            42 2.77  41 2.77  37 2.77  38 2.77
  58  0.625  0.375  0.475-   9 2.77  10 2.77  13 2.77  14 2.77  57 2.77  59 2.77  54 2.77  62 2.77
                            43 2.77  42 2.77  38 2.77  39 2.77
  59  0.625  0.625  0.475-  10 2.77  11 2.77  14 2.77  15 2.77  58 2.77  60 2.77  55 2.77  63 2.77
                            44 2.77  43 2.77  39 2.77  40 2.77
  60  0.625  0.875  0.475-  11 2.77  12 2.77  15 2.77  16 2.77  57 2.77  59 2.77  56 2.77  64 2.77
                            41 2.77  37 2.77  44 2.77  40 2.77
  61  0.875  0.125  0.475-  16 2.77   4 2.77  13 2.77   1 2.77  62 2.77  64 2.77  49 2.77  57 2.77
                            46 2.77  45 2.77  41 2.77  42 2.77
  62  0.875  0.375  0.475-  13 2.77   2 2.77   1 2.77  14 2.77  61 2.77  63 2.77  50 2.77  58 2.77
                            47 2.77  46 2.77  42 2.77  43 2.77
  63  0.875  0.625  0.475-  14 2.77   3 2.77   2 2.77  15 2.77  62 2.77  64 2.77  51 2.77  59 2.77
                            48 2.77  47 2.77  43 2.77  44 2.77
  64  0.875  0.875  0.475-  15 2.77   4 2.77   3 2.77  16 2.77  61 2.77  63 2.77  52 2.77  60 2.77
                            45 2.77  41 2.77  48 2.77  44 2.77

IMPORTANT INFORMATION: All symmetrisations will be switched off!
NOSYMM: (Re-)initialisation of all symmetry stuff for point group C_1.

                                     Primitive cell

  volume of cell :    4808.9583

  direct lattice vectors                    reciprocal lattice vectors
    11.079802016  0.000000000  0.000000000     0.090254320  0.000000000 -0.000000000
    -0.000000000 11.079802016  0.000000000     0.000000000  0.090254320  0.000000000
     0.000000000  0.000000000 39.173015700    -0.000000000 -0.000000000  0.025527777

  length of vectors
    11.079802016 11.079802016 39.173015700     0.090254320  0.090254320  0.025527777

  position of ions in fractional coordinates (direct lattice)
     1.000000000  0.250000000  0.525000000
     1.000000000  0.500000000  0.525000000
     1.000000000  0.750000000  0.525000000
     0.000000000  0.000000000  0.525000000
     0.250000000  0.250000000  0.525000000
     0.250000000  0.500000000  0.525000000
     0.250000000  0.750000000  0.525000000
     0.250000000  0.000000000  0.525000000
     0.500000000  0.250000000  0.525000000
     0.500000000  0.500000000  0.525000000
     0.500000000  0.750000000  0.525000000
     0.500000000  0.000000000  0.525000000
     0.750000000  0.250000000  0.525000000
     0.750000000  0.500000000  0.525000000
     0.750000000  0.750000000  0.525000000
     0.750000000  0.000000000  0.525000000
     0.125000000  0.125000000  0.575000000
     0.125000000  0.375000000  0.575000000
     0.125000000  0.625000000  0.575000000
     0.125000000  0.875000000  0.575000000
     0.375000000  0.125000000  0.575000000
     0.375000000  0.375000000  0.575000000
     0.375000000  0.625000000  0.575000000
     0.375000000  0.875000000  0.575000000
     0.625000000  0.125000000  0.575000000
     0.625000000  0.375000000  0.575000000
     0.625000000  0.625000000  0.575000000
     0.625000000  0.875000000  0.575000000
     0.875000000  0.125000000  0.575000000
     0.875000000  0.375000000  0.575000000
     0.875000000  0.625000000  0.575000000
     0.875000000  0.875000000  0.575000000
     0.250000000  0.000000000  0.425000000
     0.250000000  0.250000000  0.425000000
     0.250000000  0.500000000  0.425000000
     0.250000000  0.750000000  0.425000000
     0.500000000  0.000000000  0.425000000
     0.500000000  0.250000000  0.425000000
     0.500000000  0.500000000  0.425000000
     0.500000000  0.750000000  0.425000000
     0.750000000  0.000000000  0.425000000
     0.750000000  0.250000000  0.425000000
     0.750000000  0.500000000  0.425000000
     0.750000000  0.750000000  0.425000000
     0.000000000  0.000000000  0.425000000
     1.000000000  0.250000000  0.425000000
     1.000000000  0.500000000  0.425000000
     1.000000000  0.750000000  0.425000000
     0.125000000  0.125000000  0.475000000
     0.125000000  0.375000000  0.475000000
     0.125000000  0.625000000  0.475000000
     0.125000000  0.875000000  0.475000000
     0.375000000  0.125000000  0.475000000
     0.375000000  0.375000000  0.475000000
     0.375000000  0.625000000  0.475000000
     0.375000000  0.875000000  0.475000000
     0.625000000  0.125000000  0.475000000
     0.625000000  0.375000000  0.475000000
     0.625000000  0.625000000  0.475000000
     0.625000000  0.875000000  0.475000000
     0.875000000  0.125000000  0.475000000
     0.875000000  0.375000000  0.475000000
     0.875000000  0.625000000  0.475000000
     0.875000000  0.875000000  0.475000000

  ion indices of the primitive-cell ions
   primitive index   ion index
                 1           1
                 2           2
                 3           3
                 4           4
                 5           5
                 6           6
                 7           7
                 8           8
                 9           9
                10          10
                11          11
                12          12
                13          13
                14          14
                15          15
                16          16
                17          17
                18          18
                19          19
                20          20
                21          21
                22          22
                23          23
                24          24
                25          25
                26          26
                27          27
                28          28
                29          29
                30          30
                31          31
                32          32
                33          33
                34          34
                35          35
                36          36
[...]
  326          m_sumb_d                              0.001130                         18   4
  327          brpre                                 0.000456                          6   4
  328          setg0                                 0.011992                          3   4
  329          broyd                                 0.031905                          3   4
  330            m_sumb_d                              0.003912                       79   5
  331            brget                                 0.006169                      317   5
  332            brsav                                 0.001393                       73   5
  333        m_bcast_d                             0.000672                            6   3
  334      potlok                                2.692127                              3   2
  335        fft3d_mpi                             0.761254                           78   3
  336          fftbrc_mpi                            0.701003                         78   4
  337            fftbas_plan_mpi                       0.700961                       78   5
  338              dfftw_execute                         0.075299                    234   6
  339              map_forward                           0.264593                     84   6
  340                map_gather                            0.043842                   48   7
  341                m_alltoallv_z                         0.187503                   48   7
  342                map_scatter                           0.033091                   48   7
  343              map_backward                          0.296995                     72   6
  344                map_gather                            0.031558                   36   7
  345                m_alltoallv_z                         0.238013                   36   7
  346                map_scatter                           0.027271                   36   7
  347        m_sumb_d                              0.001653                           15   3
  348        pothar                                0.016707                            3   3
  349          m_sumb_d                              0.000740                          3   4
  350        m_bcast_d                             0.048303                            6   3
  351      potlok_metagga                        0.000002                              3   2
  352      set_dd_magatom                        0.000000                              3   2
  353      set_dd_paw                            1.665378                              3   2
  354        set_rsgf_all                          0.000002                            3   3
  355        m_alltoall_d                          0.086320                            6   3
  356        m_sumb_d                              0.000800                           18   3
  357      wavpre_noio                           0.077575                              2   2
  358        stufak                                0.027403                            2   3
  359      densta                                0.022170                              1   2
  360        m_sumb_d                              0.000436                           41   3
  361        m_alltoall_d                          0.011489                            6   3

 Flat profile

 fft3d                                1093.958652      220316
 vhamil                                524.163227       84035
 fftwav                                288.520871      136281
 m_alltoall_d                          265.568549      417670
 eccp                                  221.807054      101113
 w1_daxpy                              200.028433       95386
 orth1                                 160.453643       28236
 w1_dscal                              143.729130      117212
 w1_copy                               142.016508      172545
 lincom                                124.362909        1660
 redis_pw                              120.714129       28306
 m_sumb_d                               75.412321       31464
 potlok                                 51.976329          84
 pdssyex_zheevx                         49.495713         850
 ggemm                                  46.710565       10202
 set_dd_paw                             45.921328          87
 crrexp_mul_work_add                    40.081573     3680960
 rpromu_gemm                            37.008649      907136
 crrexp_mul_wave                        36.349864     3661760
 pw_charge                              32.736480       18204
 total_time                             30.850996           1
 gemm                                   30.782331      838016
 eddrmm                                 24.050431          78
 w1_gaxpy                               21.323134       51762
 fftext_mpi                             21.083557       84035
 kinhamil                               18.732152       84035
 racc0                                  18.456016        7822
 rpro1                                  15.895541        5442
 w1_gemv                                15.520350       96264
 m_alltoallv_z                          12.725244        2916
 apply_precond                          10.906086       81724
 m_bcast_z                               9.358622       13262
 eddiag                                  7.992389          78
 cnorma                                  6.143497       72213
 i2                                      5.865153       13094
 choleski                                5.492069         810
 orthch                                  5.198627          81
 w1_dot                                  5.033434       24520
 lapack                                  4.753277        7822
 eddav                                   4.390044           7
 soft_charge                             4.207975          81
 rpromu                                  3.693475       14174
 fft3d_mpi                               2.990412       86621
 dfftw_execute                           2.636180        7758
 setup_precond                           2.606486       28900
 map_gather                              2.551358        2916
 racc0mu                                 2.495397       13094
 fftbas_plan_mpi                         2.243697        2586
 force_and_stress                        1.777770           3
 map_scatter                             1.772724        2916
 m_bcast_d                               1.634621       15825
 phaser                                  1.535724         910
 overl1                                  1.508170      105647
 augmentation_charge                     1.350430          81
 zhegv                                   1.288571       23173
 setdij_                                 1.067331         106
 eccp_nl                                 0.936078       72213
 broyd                                   0.649822          81
 overl                                   0.601391       14854
 sphpro_fast                             0.565803           4
 elmin                                   0.520609           3
 pothar                                  0.472955          87
 i3                                      0.454312       13094
 hamiltmu                                0.409185       20916
 brmix                                   0.396299          81
 newband                                 0.352746       21766
 setg0                                   0.323720          87
 w1_projall                              0.300867       18536
 redis_proj                              0.276510       31438
 depsum                                  0.217388          81
 brget                                   0.192125       10429
 rpro_isp                                0.180988          60
 rspher_all                              0.172469          13
 raccmu_                                 0.169089       20916
 fftwav_mpi                              0.168664      136281
 forhar                                  0.129136           6
 hamilt_local                            0.104854       26520
 set_charge                              0.100220          81
 fft_gq                                  0.091380          81
 i1                                      0.063182       13094
 forloc                                  0.058420           3
 densta                                  0.057235          86
 brsav                                   0.052456        2737
 wavpre_noio                             0.050172           2
 chggra                                  0.045294           3
 stufak                                  0.041676           3
 truncate_high_frequency_w1              0.030140       86415
 fornlr                                  0.027166           3
 brpre                                   0.008593         162
 map_backward                            0.006490        2742
 map_forward                             0.004415        2430
 rsp                                     0.002417           3
 fftbrc_mpi                              0.001552        2586
 brgrid                                  0.000599           1
 fordep                                  0.000465           3
 fewald                                  0.000400           3
 rcp                                     0.000235           3
 shift_bands_between_low_high            0.000200         780
 proall                                  0.000115           3
 set_rsgf_all                            0.000081          87
 potlok_metagga                          0.000046          84
 crpa_reader                             0.000031           1
 vectorpot                               0.000023          82
 FERMAT_RAZOR                            0.000014           1
 set_dd_magatom                          0.000006          87
 redis_pw_over_bands                     0.000002           3
 rotate_active_occupied_orbital          0.000001           3
  summed up times     4019.167237997055

 Accumulative profile

 total_time                           4019.167238           1
 elmin                                3913.125473           3
 eddrmm                               2141.925277          78
 fft3d                                1093.958652      220316
 fftwav_mpi                            970.156394      136281
 fftwav                                969.987731      136281
 eddiag                                824.054099          78
 hamiltmu                              791.813182       20916
 i3                                    549.114410       13094
 vhamil                                524.163227       84035
 i2                                    487.825598       13094
 eddav                                 471.198720           7
 kinhamil                              452.478863       84035
 fft3d_mpi                             437.423867       86621
 fftext_mpi                            433.746710       84035
 newband                               281.899803       21766
 hamilt_local                          278.336350       26520
 redis_pw                              277.291903       28306
 m_alltoall_d                          265.568549      417670
 eccp                                  221.807054      101113
 orthch                                200.402190          81
 w1_daxpy                              200.028433       95386
 set_charge                            171.028504          81
 soft_charge                           168.043467          81
 orth1                                 160.453643       28236
 w1_dscal                              143.729130      117212
 w1_copy                               142.016508      172545
 lincom                                124.362909        1660
 raccmu_                                92.993403       20916
 w1_projall                             87.619641       18536
 m_sumb_d                               75.412321       31464
 potlok                                 74.739377          84
 rpromu                                 72.278182       14174
 racc0mu                                64.860953       13094
 redis_proj                             56.896962       31438
 pdssyex_zheevx                         49.495728         850
 set_dd_paw                             47.577977          87
 ggemm                                  46.710565       10202
 crrexp_mul_work_add                    40.081573     3680960
 force_and_stress                       39.738600           3
 rpromu_gemm                            37.008649      907136
 crrexp_mul_wave                        36.349864     3661760
 rpro_isp                               35.356181          60
 pw_charge                              32.736480       18204
 gemm                                   30.782331      838016
 fornlr                                 28.663425           3
 racc0                                  26.954363        7822
 fftbrc_mpi                             21.941661        2586
 fftbas_plan_mpi                        21.940109        2586
 w1_gaxpy                               21.323134       51762
 rpro1                                  20.669348        5442
 w1_gemv                                16.019522       96264
 m_alltoallv_z                          12.725244        2916
 i1                                     11.742495       13094
 apply_precond                          10.906086       81724
 map_backward                           10.215591        2742
 m_bcast_z                               9.358622       13262
 proall                                  8.818539           3
 cnorma                                  7.079575       72213
 map_forward                             6.844641        2430
 choleski                                5.492069         810
 w1_dot                                  5.033434       24520
 lapack                                  4.753277        7822
 dfftw_execute                           2.636180        7758
 setup_precond                           2.606486       28900
 augmentation_charge                     2.576259          81
 map_gather                              2.551358        2916
 fft_gq                                  2.093857          81
 brmix                                   1.784282          81
 map_scatter                             1.772724        2916
 m_bcast_d                               1.634621       15825
 phaser                                  1.535724         910
 overl1                                  1.508170      105647
 zhegv                                   1.288571       23173
 setdij_                                 1.200094         106
 broyd                                   1.035040          81
 eccp_nl                                 0.936078       72213
 sphpro_fast                             0.645525           4
 overl                                   0.601391       14854
 pothar                                  0.493992          87
 setg0                                   0.323720          87
 depsum                                  0.308558          81
 brget                                   0.192125       10429
 fordep                                  0.178653           3
 rspher_all                              0.172469          13
 forhar                                  0.162335           6
 chggra                                  0.137557           3
 densta                                  0.098097          86
 forloc                                  0.083408           3
 wavpre_noio                             0.077575           2
 brsav                                   0.052456        2737
 stufak                                  0.041676           3
 truncate_high_frequency_w1              0.030140       86415
 brpre                                   0.008593         162
 fewald                                  0.003980           3
 rsp                                     0.002417           3
 brgrid                                  0.000599           1
 rcp                                     0.000235           3
 shift_bands_between_low_high            0.000200         780
 set_rsgf_all                            0.000081          87
 potlok_metagga                          0.000046          84
 crpa_reader                             0.000031           1
 vectorpot                               0.000023          82
 FERMAT_RAZOR                            0.000014           1
 set_dd_magatom                          0.000006          87
 redis_pw_over_bands                     0.000002           3
 rotate_active_occupied_orbital          0.000001           3

Profiling took   1.548907  1.083219  0.003071  0.002913 seconds
Profiling took   1.563960 seconds