 vasp.6.3.2 27Jun22 (build Aug 29 2022 23:59:14) complex
 executed on              LinuxNV date 2023.05.27  12:25:56

 INCAR:
   ALGO = Fast
   EDIFF = 0.0001
   EDIFFG = -0.05
   ENCUT = 500
   GGA = PE
   IBRION = 2
   ISIF = 0
   ISMEAR = 1
   ISPIN = 2
   ISTART = 1
   ISYM = 0
   LASPH = True
   LCHARG = False
   LMAXMIX = 4
   LORBIT = 11
   LREAL = True
   LVTOT = False
   LWAVE = True
   MAGMOM = 1*0.414 1*0.413 1*0.374 1*0.372 2*0.406 1*0.371 1*0.37 2*0.405 2*0.37 2*0.414 2*0.373 1*0.272 1*0.251 1*0.271 1*0.146 1*0.307 1*0.266 1*0.307 1*0.091 1*0.272 1*0.251 1*0.272 1*0.16 1*0.303 1*0.255 1*0.303 1*0.243 1*0.292 2*0.299 2*0.292 2*0.299 1*0.292 1*0.297 2*0.299 1*0.296 1*0.297 2*0.298 1*0.297 1*0.394 1*0.417 1*0.394 1*0.404 1*0.395 1*0.416 1*0.396 1*0.375 1*0.394 1*0.416 1*0.394 1*0.403 1*0.402 1*0.428 1*0.402 1*0.411 1*0.099 1*0.113
   NCORE = 4
   NELM = 80
   NELMIN = 8
   NSW = 300
   PREC = Accurate
   SIGMA = 0.2
   SYMPREC = 1e-10

 POTCAR:    PAW_PBE Pd 04Jan2005
 POTCAR:    PAW_PBE O 08Apr2002
 POTCAR:    PAW_PBE Pd 04Jan2005
   VRHFIN =Pd : s1 d9

   TITEL  = PAW_PBE Pd 04Jan2005
   POMASS =  106.420; ZVAL   =   10.000    mass and valenz
   ENMAX  =  250.925; ENMIN  =  188.194 eV

   TITEL  = PAW_PBE O 08Apr2002
   POMASS =   16.000; ZVAL   =    6.000    mass and valenz
   ENMAX  =  400.000; ENMIN  =  300.000 eV

  PAW_PBE Pd 04Jan2005                  :
  PAW_PBE O 08Apr2002                   :

 POSCAR: Pd64 O2
  positions in direct lattice
 exchange correlation table for  LEXCH =        8
   RHO(1)=    0.500       N(1)  =     2000
   RHO(2)=  100.500       N(2)  =     4000

 ion  position               nearest neighbor table
   1  1.000  0.250  0.525-  17 2.74  29 2.75  18 2.76  30 2.76  13 2.77   5 2.77  61 2.77   2 2.77
                            49 2.77  62 2.77  50 2.77   4 2.78
   2  1.000  0.500  0.525-  19 2.74  31 2.75  18 2.76  30 2.76  14 2.77   6 2.77  63 2.77   1 2.77
                            51 2.77  62 2.77  50 2.77   3 2.78
   3  0.001  0.751  0.526-   4 2.74  19 2.75  32 2.75  31 2.76   7 2.76  52 2.78   2 2.78  51 2.79
                            64 2.79  15 2.80  63 2.81  20 2.85
   4  0.001  0.999  0.526-   3 2.74  17 2.75  32 2.75   8 2.76  29 2.76  52 2.78   1 2.78  49 2.79
                            64 2.79  16 2.80  61 2.81  20 2.85
   5  0.250  0.250  0.525-  21 2.74  17 2.75  22 2.76  18 2.76   9 2.77   1 2.77  53 2.77   6 2.77
                            49 2.78  54 2.78  50 2.78   8 2.79
   6  0.250  0.500  0.525-  23 2.75  19 2.75  22 2.76  18 2.76  10 2.77   2 2.77  55 2.77   5 2.77
                            51 2.78  54 2.78  50 2.78   7 2.79
   7  0.251  0.752  0.526-   8 2.72  11 2.75  23 2.75   3 2.76  19 2.77  56 2.78   6 2.79  52 2.79
                            55 2.81  51 2.81  20 2.86  24 3.11
   8  0.251  0.998  0.526-   7 2.72  12 2.75  21 2.75   4 2.76  17 2.77  56 2.78   5 2.79  52 2.79
                            53 2.81  49 2.81  20 2.86  24 3.12
   9  0.500  0.250  0.525-  21 2.75  25 2.75  22 2.76  26 2.76   5 2.77  13 2.77  10 2.77  53 2.77
                            57 2.78  54 2.78  58 2.78  12 2.79
  10  0.500  0.500  0.525-  23 2.74  27 2.75  22 2.76  26 2.76   6 2.77  14 2.77  55 2.77   9 2.77
                            59 2.77  54 2.78  58 2.78  11 2.79
  11  0.499  0.752  0.526-  12 2.72   7 2.75  23 2.75  15 2.77  27 2.77  56 2.78  10 2.79  60 2.79
                            55 2.81  59 2.81  28 2.85  24 3.13
  12  0.499  0.998  0.526-  11 2.72   8 2.75  21 2.75  16 2.77  25 2.77  56 2.78   9 2.79  60 2.79
                            53 2.81  57 2.81  28 2.85  24 3.13
  13  0.750  0.250  0.525-  25 2.74  29 2.75  26 2.76  30 2.76   1 2.77   9 2.77  61 2.77  14 2.77
                            57 2.77  62 2.77  58 2.77  16 2.78
  14  0.750  0.500  0.525-  27 2.74  31 2.75  26 2.76  30 2.76   2 2.77  10 2.77  63 2.77  13 2.77
                            59 2.77  62 2.77  58 2.77  15 2.78
  15  0.749  0.751  0.526-  16 2.74  27 2.75  32 2.76  31 2.76  11 2.77  60 2.78  14 2.78  64 2.79
                            59 2.79   3 2.80  63 2.81  28 2.84
  16  0.749  0.999  0.526-  15 2.74  25 2.75  32 2.76  29 2.76  12 2.77  60 2.78  13 2.78  64 2.79
                            57 2.79   4 2.80  61 2.81  28 2.84
  17  0.124  0.127  0.575-   1 2.74  18 2.75   4 2.75   5 2.75  29 2.76   8 2.77  21 2.78  20 2.80

  18  0.124  0.375  0.575-  19 2.75  17 2.75   2 2.76   1 2.76  30 2.76   6 2.76   5 2.76  22 2.78

[...]

  20  0.124  0.875  0.579-  65 1.92  32 2.76  24 2.78  19 2.80  17 2.80   4 2.85   3 2.85   7 2.86
                             8 2.86
  21  0.375  0.127  0.575-   5 2.74   9 2.75  22 2.75   8 2.75  12 2.75  17 2.78  25 2.78  24 2.84

[...]

  28  0.626  0.875  0.579-  66 1.92  32 2.76  25 2.80  27 2.80  24 2.83  16 2.84  15 2.84  12 2.85
                            11 2.85
  29  0.875  0.127  0.575-   1 2.75  13 2.75  30 2.75  17 2.76  25 2.76  16 2.76   4 2.76  32 2.79

[...]

  48  0.000  0.750  0.425-  51 2.77  52 2.77  63 2.77  64 2.77  36 2.77  44 2.77  45 2.77  47 2.77

  49  0.125  0.125  0.475-  33 2.77  34 2.77  45 2.77  46 2.77  50 2.77  52 2.77  53 2.77  61 2.77
                             1 2.77   5 2.78   4 2.79   8 2.81
  50  0.125  0.375  0.475-  34 2.77  35 2.77  46 2.77  47 2.77  49 2.77  51 2.77  54 2.77  62 2.77
                             1 2.77   2 2.77   6 2.78   5 2.78
  51  0.125  0.625  0.475-  35 2.77  36 2.77  47 2.77  48 2.77  50 2.77  52 2.77  55 2.77  63 2.77
                             2 2.77   6 2.78   3 2.79   7 2.81
  52  0.125  0.875  0.475-  33 2.77  36 2.77  45 2.77  48 2.77  49 2.77  51 2.77  56 2.77  64 2.77
                             3 2.78   4 2.78   7 2.79   8 2.79
  53  0.375  0.125  0.475-  33 2.77  34 2.77  37 2.77  38 2.77  49 2.77  54 2.77  56 2.77  57 2.77
                             5 2.77   9 2.77  12 2.81   8 2.81
  54  0.375  0.375  0.475-  34 2.77  35 2.77  38 2.77  39 2.77  50 2.77  53 2.77  55 2.77  58 2.77
                             5 2.78   6 2.78  10 2.78   9 2.78
  55  0.375  0.625  0.475-  35 2.77  36 2.77  39 2.77  40 2.77  51 2.77  54 2.77  56 2.77  59 2.77
                             6 2.77  10 2.77  11 2.81   7 2.81
  56  0.375  0.875  0.475-  33 2.77  36 2.77  37 2.77  40 2.77  52 2.77  53 2.77  55 2.77  60 2.77
                            11 2.78   7 2.78  12 2.78   8 2.78
  57  0.625  0.125  0.475-  37 2.77  38 2.77  41 2.77  42 2.77  53 2.77  58 2.77  60 2.77  61 2.77
                            13 2.77   9 2.78  16 2.79  12 2.81
  58  0.625  0.375  0.475-  38 2.77  39 2.77  42 2.77  43 2.77  54 2.77  57 2.77  59 2.77  62 2.77
                            13 2.77  14 2.77  10 2.78   9 2.78
  59  0.625  0.625  0.475-  39 2.77  40 2.77  43 2.77  44 2.77  55 2.77  58 2.77  60 2.77  63 2.77
                            14 2.77  10 2.77  15 2.79  11 2.81
  60  0.625  0.875  0.475-  37 2.77  40 2.77  41 2.77  44 2.77  56 2.77  57 2.77  59 2.77  64 2.77
                            15 2.78  16 2.78  11 2.79  12 2.79
  61  0.875  0.125  0.475-  41 2.77  42 2.77  45 2.77  46 2.77  49 2.77  57 2.77  62 2.77  64 2.77
                            13 2.77   1 2.77  16 2.81   4 2.81
  62  0.875  0.375  0.475-  42 2.77  43 2.77  46 2.77  47 2.77  50 2.77  58 2.77  61 2.77  63 2.77
                            13 2.77  14 2.77   1 2.77   2 2.77
  63  0.875  0.625  0.475-  43 2.77  44 2.77  47 2.77  48 2.77  51 2.77  59 2.77  62 2.77  64 2.77
                            14 2.77   2 2.77  15 2.81   3 2.81
  64  0.875  0.875  0.475-  41 2.77  44 2.77  45 2.77  48 2.77  52 2.77  60 2.77  61 2.77  63 2.77
                            15 2.79  16 2.79   3 2.79   4 2.79
  65  0.231  0.873  0.618-  20 1.92  24 1.94
  66  0.518  0.875  0.617-  28 1.92  24 1.96

IMPORTANT INFORMATION: All symmetrisations will be switched off!
NOSYMM: (Re-)initialisation of all symmetry stuff for point group C_1.

                                     Primitive cell

  volume of cell :    4808.9583

  direct lattice vectors                    reciprocal lattice vectors
    11.079802020  0.000000000  0.000000000     0.090254320  0.000000000  0.000000000
     0.000000000 11.079802020  0.000000000     0.000000000  0.090254320  0.000000000
     0.000000000  0.000000000 39.173015700     0.000000000  0.000000000  0.025527777

  length of vectors
    11.079802020 11.079802020 39.173015700     0.090254320  0.090254320  0.025527777

  position of ions in fractional coordinates (direct lattice)
     0.999960920  0.249875570  0.525130860
     0.999962680  0.500143010  0.525129090
     0.001313880  0.751295780  0.525810620
     0.001355480  0.998729110  0.525823290
     0.250059420  0.249793710  0.525221340
     0.250058470  0.500225260  0.525217590
     0.250756580  0.752123240  0.526032610
     0.250762020  0.997907600  0.526036060
     0.499964090  0.249790210  0.525223980
     0.499973670  0.500221170  0.525217330
     0.499220090  0.752099950  0.526031720
     0.499199490  0.997929500  0.526037340
     0.750087260  0.249877150  0.525127090
     0.750088430  0.500144280  0.525123050
     0.748830160  0.751314140  0.525812880
     0.748828780  0.998707530  0.525817550
     0.124018800  0.127045060  0.574829450
     0.124224650  0.375041350  0.574735160
     0.123992180  0.622956840  0.574835680
     0.124189860  0.874974850  0.579244100
     0.374943620  0.126952210  0.574771080
     0.375014420  0.375049550  0.574709750
     0.375033190  0.623026340  0.574764090
     0.373187870  0.874943160  0.588616700
     0.626026600  0.127123930  0.574822540
     0.625796350  0.375051800  0.574734940
     0.626054090  0.622933430  0.574820380
     0.626351920  0.875114970  0.578948350
     0.875040570  0.126652900  0.574741840
     0.875008170  0.375069560  0.574760090
     0.875038020  0.623447540  0.574738840
     0.875500860  0.875122140  0.575222610
     0.250000000  0.000000000  0.425000000
     0.250000000  0.250000000  0.425000000
     0.250000000  0.500000000  0.425000000
     0.250000000  0.750000000  0.425000000
     0.500000000  0.000000000  0.425000000
     0.500000000  0.250000000  0.425000000
     0.500000000  0.500000000  0.425000000
     0.500000000  0.750000000  0.425000000
     0.750000000  0.000000000  0.425000000
     0.750000000  0.250000000  0.425000000
     0.750000000  0.500000000  0.425000000
     0.750000000  0.750000000  0.425000000
     0.000000000  0.000000000  0.425000000
     0.000000000  0.250000000  0.425000000
     0.000000000  0.500000000  0.425000000
     0.000000000  0.750000000  0.425000000
     0.125000000  0.125000000  0.475000000
     0.125000000  0.375000000  0.475000000
     0.125000000  0.625000000  0.475000000
     0.125000000  0.875000000  0.475000000
     0.375000000  0.125000000  0.475000000
     0.375000000  0.375000000  0.475000000
     0.375000000  0.625000000  0.475000000
     0.375000000  0.875000000  0.475000000
     0.625000000  0.125000000  0.475000000
     0.625000000  0.375000000  0.475000000
     0.625000000  0.625000000  0.475000000
     0.625000000  0.875000000  0.475000000
     0.875000000  0.125000000  0.475000000
     0.875000000  0.375000000  0.475000000
     0.875000000  0.625000000  0.475000000
[...]
  353          setg0                                 0.083925                         21   4
  354          broyd                                 0.073276                         21   4
  355            m_sumb_d                              0.010694                      328   5
  356            brget                                 0.020729                     1094   5
  357            brsav                                 0.005675                      286   5
  358        m_bcast_d                             0.001692                           42   3
  359      potlok                               18.859697                             21   2
  360        fft3d_mpi                             5.233588                          546   3
  361          fftbrc_mpi                            4.801726                        546   4
  362            fftbas_plan_mpi                       4.801454                      546   5
  363              dfftw_execute                         0.515925                   1638   6
  364              map_forward                           1.834926                    588   6
  365                map_gather                            0.311655                  336   7
  366                m_alltoallv_z                         1.310201                  336   7
  367                map_scatter                           0.212058                  336   7
  368              map_backward                          2.053408                    504   6
  369                map_gather                            0.234447                  252   7
  370                m_alltoallv_z                         1.637045                  252   7
  371                map_scatter                           0.180875                  252   7
  372        m_sumb_d                              0.006927                          105   3
  373        pothar                                0.117544                           21   3
  374          m_sumb_d                              0.003204                         21   4
  375        m_bcast_d                             0.326293                           42   3
  376      potlok_metagga                        0.000011                             21   2
  377      set_dd_magatom                        0.000007                             21   2
  378      set_dd_paw                           11.385702                             21   2
  379        set_rsgf_all                          0.000014                           21   3
  380        m_alltoall_d                          0.322299                           42   3
  381        m_sumb_d                              0.004330                          126   3
  382      m_sumb_d                              0.244076                           4203   2
  383      wavpre_noio                           1.276573                             20   2
  384        stufak                                0.310748                           20   3
  385      m_alltoall_d                          2.941170                          16646   2
  386      densta                                0.021466                              1   2
  387        m_sumb_d                              0.000329                           43   3
  388        m_alltoall_d                          0.008244                            6   3

 Flat profile

 fft3d                                1793.189259      370662
 vhamil                                779.170728      127546
 m_alltoall_d                          518.601682      749286
 fftwav                                492.198008      243116
 eccp                                  295.650116      135646
 orth1                                 264.639265       54880
 w1_daxpy                              262.111108      100812
 redis_pw                              203.951619       55270
 lincom                                197.517058        4040
 m_sumb_d                              177.504076       57793
 potlok                                139.131061         223
 w1_copy                               131.304591      241458
 set_dd_paw                            127.709077         244
 w1_dscal                              125.245529      103464
 pw_charge                              93.146360       50730
 pdssyex_zheevx                         88.697522        2020
 ggemm                                  85.590210       21200
 crrexp_mul_work_add                    58.492470     5312076
 rpromu_gemm                            57.196488     1702368
 crrexp_mul_wave                        55.495470     5941872
 gemm                                   41.199852     1172424
 racc0                                  38.588028       15740
 m_alltoallv_z                          37.223413        8008
 eddrmm                                 36.830681         181
 fftext_mpi                             32.522846      127546
 kinhamil                               29.159972      127546
 rpro1                                  28.830281       10280
 total_time                             23.350805           1
 w1_gaxpy                               16.653275       39634
 eddiag                                 12.995147         181
 force_and_stress                       12.391425          21
 w1_gemv                                11.575876       73388
 soft_charge                            11.055913         203
 apply_precond                          11.054984       82634
 choleski                                7.877925        2020
 fft3d_mpi                               7.772666      134702
 map_gather                              7.586997        8008
 lapack                                  7.520127       15740
 eddav                                   7.332718          21
 i2                                      7.195715       17764
 dfftw_execute                           6.683077       21468
 w1_dot                                  6.662814       32720
 m_bcast_z                               6.652498       19902
 cnorma                                  6.309596       83126
 orthch                                  5.679172         202
 fftbas_plan_mpi                         5.407386        7156
 map_scatter                             4.995543        8008
 setup_precond                           4.704295       52520
 phaser                                  4.101966        2440
 rpromu                                  3.905210       23644
 m_bcast_d                               3.853175       32013
 setdij_                                 3.781096         371
 augmentation_charge                     3.366434         203
 racc0mu                                 3.325926       17764
 overl1                                  1.903135      117180
 pothar                                  1.314013         244
 elmin                                   1.194791          21
 rpro_isp                                1.171028         420
 overl                                   1.139852       29850
 sphpro_fast                             1.088519          22
 eccp_nl                                 1.061840       83126
 brmix                                   1.035228         202
 wavpre_noio                             0.965825          20
 zhegv                                   0.909086       17686
 rspher_all                              0.871555          85
 forhar                                  0.843945          42
 setg0                                   0.804348         244
 newband                                 0.615641       35524
 hamiltmu                                0.586253       33504
 redis_proj                              0.536384       63950
 w1_projall                              0.524464       28044
 i3                                      0.496368       17764
 depsum                                  0.422884         203
 forloc                                  0.369377          21
 stufak                                  0.326882          21
 chggra                                  0.303458          21
 broyd                                   0.285009         202
 fftwav_mpi                              0.278070      243116
 set_charge                              0.263516         203
 raccmu_                                 0.251317       33504
 fft_gq                                  0.207021         203
 hamilt_local                            0.188811       47060
 densta                                  0.148809         203
 brget                                   0.146679        8177
 fornlr                                  0.127616          21
 i1                                      0.081072       17764
 brsav                                   0.044146        2334
 truncate_high_frequency_w1              0.039144      133006
 brpre                                   0.021403         404
 map_backward                            0.017039        7522
 rsp                                     0.016374          21
 map_forward                             0.011290        6790
 fftbrc_mpi                              0.003717        7156
 fordep                                  0.003525          21
 brgrid                                  0.001918           1
 rcp                                     0.001777          21
 proall                                  0.001422          21
 fewald                                  0.001050          21
 shift_bands_between_low_high            0.000474        1810
 crpa_reader                             0.000366           1
 set_rsgf_all                            0.000185         244
 potlok_metagga                          0.000073         223
 vectorpot                               0.000056         203
 set_dd_magatom                          0.000020         244
 FERMAT_RAZOR                            0.000014           1
 rotate_active_occupied_orbital          0.000006          21
 redis_pw_over_bands                     0.000005          21
  summed up times     6425.315329074860

 Accumulative profile

 total_time                           6425.315329           1
 elmin                                6041.342116          21
 eddrmm                               2692.757662         181
 fft3d                                1793.189259      370662
 fftwav_mpi                           1680.335378      243116
 fftwav                               1680.057308      243116
 eddiag                               1418.917030         181
 hamiltmu                             1090.312188       33504
 eddav                                 916.608546          21
 vhamil                                779.170728      127546
 fft3d_mpi                             675.031087      134702
 kinhamil                              667.297248      127546
 fftext_mpi                            638.137276      127546
 i3                                    612.934251       17764
 m_alltoall_d                          518.601682      749286
 newband                               511.786499       35524
 hamilt_local                          500.312055       47060
 redis_pw                              494.429871       55270
 i2                                    483.858672       17764
 set_charge                            461.968957         203
 soft_charge                           454.177662         203
 orthch                                343.058450         202
 eccp                                  295.650116      135646
 orth1                                 264.639265       54880
 w1_daxpy                              262.111108      100812
 force_and_stress                      230.346921          21
 potlok                                199.177822         223
 lincom                                197.517058        4040
 rpro_isp                              185.054148         420
 m_sumb_d                              177.504076       57793
 fornlr                                149.865216          21
 raccmu_                               143.381202       33504
 set_dd_paw                            133.088154         244
 w1_copy                               131.304591      241458
 w1_dscal                              125.245529      103464
 w1_projall                            114.981858       28044
 rpromu                                107.370515       23644
 redis_proj                            104.125106       63950
 pw_charge                              93.146360       50730
 pdssyex_zheevx                         88.697536        2020
 racc0mu                                86.134358       17764
 ggemm                                  85.590210       21200
 fftbrc_mpi                             61.928462        7156
 fftbas_plan_mpi                        61.924744        7156
 crrexp_mul_work_add                    58.492470     5312076
 rpromu_gemm                            57.196488     1702368
 crrexp_mul_wave                        55.495470     5941872
 racc0                                  55.471917       15740
 proall                                 46.351926          21
 gemm                                   41.199852     1172424
 rpro1                                  38.056935       10280
 m_alltoallv_z                          37.223413        8008
 map_backward                           29.834805        7522
 map_forward                            19.999478        6790
 w1_gaxpy                               16.653275       39634
 i1                                     15.582647       17764
 w1_gemv                                11.955401       73388
 apply_precond                          11.054984       82634
 choleski                                7.877925        2020
 map_gather                              7.586997        8008
 lapack                                  7.520127       15740
 cnorma                                  7.371436       83126
 augmentation_charge                     6.877095         203
 dfftw_execute                           6.683077       21468
 w1_dot                                  6.662814       32720
 m_bcast_z                               6.652498       19902
 fft_gq                                  5.453720         203
 map_scatter                             4.995543        8008
 setup_precond                           4.704295       52520
 setdij_                                 4.283007         371
 phaser                                  4.101966        2440
 m_bcast_d                               3.853175       32013
 brmix                                   2.502046         202
 overl1                                  1.903135      117180
 pothar                                  1.397065         244
 fordep                                  1.283035          21
 wavpre_noio                             1.276573          20
 sphpro_fast                             1.168055          22
 overl                                   1.139852       29850
 eccp_nl                                 1.061840       83126
 forhar                                  1.060217          42
 chggra                                  0.917309          21
 zhegv                                   0.909086       17686
 rspher_all                              0.871555          85
 setg0                                   0.804348         244
 depsum                                  0.650684         203
 broyd                                   0.567115         202
 forloc                                  0.534192          21
 stufak                                  0.326882          21
 densta                                  0.220809         203
 brget                                   0.146679        8177
 brsav                                   0.044146        2334
 truncate_high_frequency_w1              0.039144      133006
 fewald                                  0.033221          21
 brpre                                   0.021403         404
 rsp                                     0.016374          21
 brgrid                                  0.001918           1
 rcp                                     0.001777          21
 shift_bands_between_low_high            0.000474        1810
 crpa_reader                             0.000366           1
 set_rsgf_all                            0.000185         244
 potlok_metagga                          0.000073         223
 vectorpot                               0.000056         203
 set_dd_magatom                          0.000020         244
 FERMAT_RAZOR                            0.000014           1
 rotate_active_occupied_orbital          0.000006          21
 redis_pw_over_bands                     0.000005          21

Profiling took   2.340743  1.664724  0.004833  0.004338 seconds
Profiling took   2.366606 seconds