 vasp.6.2.1 16May21 (build Jul 28 2021 23:24:15) complex

 executed on      IFC19_CrayMPICH date 2021.11.25  10:27:50

 INCAR:
   ALGO = Fast
   EDIFF = 0.0001
   EDIFFG = -0.05
   ENCUT = 500
   GGA = PE
   IBRION = 2
   ISIF = 0
   ISMEAR = 0
   ISPIN = 2
   ISTART = 1
   ISYM = 0
   LASPH = True
   LORBIT = 11
   LREAL = False
   LWAVE = True
   MAGMOM = 2*1.2 4*0.6
   NCORE = 4
   NELM = 80
   NSW = 300
   PREC = Accurate
   SIGMA = 0.2
   SYMPREC = 1e-10

 POTCAR:    PAW_PBE Ir 06Sep2000
 POTCAR:    PAW_PBE O 08Apr2002
 POTCAR:    PAW_PBE Ir 06Sep2000
   VRHFIN =Ir: s1d8

   TITEL  = PAW_PBE Ir 06Sep2000
   POMASS =  192.220; ZVAL   =    9.000    mass and valenz
   ENMAX  =  210.864; ENMIN  =  158.148 eV

   TITEL  = PAW_PBE O 08Apr2002
   POMASS =   16.000; ZVAL   =    6.000    mass and valenz
   ENMAX  =  400.000; ENMIN  =  300.000 eV

  PAW_PBE Ir 06Sep2000                  :
  PAW_PBE O 08Apr2002                   :

 POSCAR: Ir2 O4
  positions in direct lattice
 exchange correlation table for  LEXCH =        8
   RHO(1)=    0.500       N(1)  =     2000
   RHO(2)=  100.500       N(2)  =     4000

 ion  position               nearest neighbor table
   1  0.500  0.500  0.000-   4 1.98   6 1.98   5 2.02   3 2.02   3 2.02   5 2.02
   2  0.000  0.000  0.000-   3 1.98   5 1.98   6 2.02   4 2.02   4 2.02   6 2.02
   3  0.000  0.308  0.617-   2 1.98   1 2.02   1 2.02
   4  0.500  0.808  0.000-   1 1.98   2 2.02   2 2.02
   5  0.000  0.692  0.383-   2 1.98   1 2.02   1 2.02
   6  0.500  0.192  0.000-   1 1.98   2 2.02   2 2.02

IMPORTANT INFORMATION: All symmetrisations will be switched off!
NOSYMM: (Re-)initialisation of all symmetry stuff for point group C_1.

                                     Primitive cell

  volume of cell :      65.8840

  direct lattice vectors                    reciprocal lattice vectors
     0.000000000  0.000000000 -3.189507000     0.000000000  0.000000000 -0.313528078
     4.544939000 -4.544939000  0.000000000     0.000000000 -0.220024955  0.000000000
    -4.544939000  0.000000000  0.000000000    -0.220024955 -0.220024955  0.000000000

  length of vectors
     3.189507000  6.427514374  4.544939000     0.313528078  0.220024955  0.311162276

  position of ions in fractional coordinates (direct lattice)
     0.500000000  0.500000000  1.000000000
     0.000000000  0.000000000  0.000000000
     0.000000000  0.308354000  0.616708000
     0.500000000  0.808354000  1.000000000
     0.000000000  0.691646000  0.383292000
     0.500000000  0.191646000  1.000000000

  ion indices of the primitive-cell ions
   primitive index   ion index
                 1           1
                 2           2
                 3           3
                 4           4
                 5           5
                 6           6

 KPOINTS: Automatic kpoint scheme

Automatic generation of k-mesh.
 Grid dimensions read from file:
 generate k-points for:   16    8   12

 Generating k-lattice:

  Cartesian coordinates                     Fractional coordinates (reciprocal lattice)
     0.000000000  0.000000000 -0.019595505     0.062500000  0.000000000  0.000000000
     0.000000000 -0.027503119  0.000000000     0.000000000  0.125000000  0.000000000
    -0.018335413 -0.018335413  0.000000000     0.000000000  0.000000000  0.083333333

  Length of vectors
     0.019595505  0.027503119  0.025930190

  Shift w.r.t. Gamma in fractional coordinates (k-lattice)
     0.000000000  0.000000000  0.000000000

 WARNING: IBZKPT: internal override: KBLOWUP is changed to .FALSE.
      ... skipping the blow-up phase ...

 Subroutine IBZKPT returns following result:

 Found    772 irreducible k-points:

 Following reciprocal coordinates:
            Coordinates               Weight
  0.000000  0.000000  0.000000      1.000000
  0.062500  0.000000  0.000000      2.000000
  0.125000  0.000000  0.000000      2.000000
  0.187500  0.000000  0.000000      2.000000
  0.250000  0.000000  0.000000      2.000000
  0.312500  0.000000  0.000000      2.000000
  0.375000  0.000000  0.000000      2.000000
  0.437500  0.000000  0.000000      2.000000
  0.500000  0.000000  0.000000      1.000000
  0.000000  0.125000  0.000000      2.000000
  0.062500  0.125000  0.000000      2.000000
  0.125000  0.125000  0.000000      2.000000
  0.187500  0.125000  0.000000      2.000000
  0.250000  0.125000  0.000000      2.000000
  0.312500  0.125000  0.000000      2.000000
  0.375000  0.125000  0.000000      2.000000
  0.437500  0.125000  0.000000      2.000000
  0.500000  0.125000  0.000000      2.000000
 -0.437500  0.125000  0.000000      2.000000
 -0.375000  0.125000  0.000000      2.000000
 -0.312500  0.125000  0.000000      2.000000
 -0.250000  0.125000  0.000000      2.000000
 -0.187500  0.125000  0.000000      2.000000
 -0.125000  0.125000  0.000000      2.000000
 -0.062500  0.125000  0.000000      2.000000
  0.000000  0.250000  0.000000      2.000000
  0.062500  0.250000  0.000000      2.000000
  0.125000  0.250000  0.000000      2.000000
  0.187500  0.250000  0.000000      2.000000
  0.250000  0.250000  0.000000      2.000000
  0.312500  0.250000  0.000000      2.000000
  0.375000  0.250000  0.000000      2.000000
  0.437500  0.250000  0.000000      2.000000
  0.500000  0.250000  0.000000      2.000000
 -0.437500  0.250000  0.000000      2.000000
 -0.375000  0.250000  0.000000      2.000000
 -0.312500  0.250000  0.000000      2.000000
 -0.250000  0.250000  0.000000      2.000000
 -0.187500  0.250000  0.000000      2.000000
 -0.125000  0.250000  0.000000      2.000000
 -0.062500  0.250000  0.000000      2.000000
  0.000000  0.375000  0.000000      2.000000
  0.062500  0.375000  0.000000      2.000000
  0.125000  0.375000  0.000000      2.000000
  0.187500  0.375000  0.000000      2.000000
  0.250000  0.375000  0.000000      2.000000
  0.312500  0.375000  0.000000      2.000000
  0.375000  0.375000  0.000000      2.000000
  0.437500  0.375000  0.000000      2.000000
  0.500000  0.375000  0.000000      2.000000
 -0.437500  0.375000  0.000000      2.000000
 -0.375000  0.375000  0.000000      2.000000
 -0.312500  0.375000  0.000000      2.000000
 -0.250000  0.375000  0.000000      2.000000
 -0.187500  0.375000  0.000000      2.000000
 -0.125000  0.375000  0.000000      2.000000
 -0.062500  0.375000  0.000000      2.000000
  0.000000  0.500000  0.000000      1.000000
  0.062500  0.500000  0.000000      2.000000
  0.125000  0.500000  0.000000      2.000000
[...]
 -0.375000  0.375000  0.500000      2.000000
 -0.312500  0.375000  0.500000      2.000000
 -0.250000  0.375000  0.500000      2.000000
 -0.187500  0.375000  0.500000      2.000000
 -0.125000  0.375000  0.500000      2.000000
 -0.062500  0.375000  0.500000      2.000000
  0.000000  0.500000  0.500000      1.000000
  0.062500  0.500000  0.500000      2.000000
  0.125000  0.500000  0.500000      2.000000
  0.187500  0.500000  0.500000      2.000000
  0.250000  0.500000  0.500000      2.000000
  0.312500  0.500000  0.500000      2.000000
  0.375000  0.500000  0.500000      2.000000
  0.437500  0.500000  0.500000      2.000000
  0.500000  0.500000  0.500000      1.000000

 Following cartesian coordinates:
            Coordinates               Weight
  0.000000  0.000000  0.000000      1.000000
  0.000000  0.000000 -0.019596      2.000000
  0.000000  0.000000 -0.039191      2.000000
  0.000000  0.000000 -0.058787      2.000000
  0.000000  0.000000 -0.078382      2.000000
  0.000000  0.000000 -0.097978      2.000000
  0.000000  0.000000 -0.117573      2.000000
  0.000000  0.000000 -0.137169      2.000000
  0.000000  0.000000 -0.156764      1.000000
  0.000000 -0.027503  0.000000      2.000000
  0.000000 -0.027503 -0.019596      2.000000
  0.000000 -0.027503 -0.039191      2.000000
  0.000000 -0.027503 -0.058787      2.000000
  0.000000 -0.027503 -0.078382      2.000000
  0.000000 -0.027503 -0.097978      2.000000
  0.000000 -0.027503 -0.117573      2.000000
  0.000000 -0.027503 -0.137169      2.000000
  0.000000 -0.027503 -0.156764      2.000000
  0.000000 -0.027503  0.137169      2.000000
  0.000000 -0.027503  0.117573      2.000000
  0.000000 -0.027503  0.097978      2.000000
  0.000000 -0.027503  0.078382      2.000000
  0.000000 -0.027503  0.058787      2.000000
  0.000000 -0.027503  0.039191      2.000000
  0.000000 -0.027503  0.019596      2.000000
  0.000000 -0.055006  0.000000      2.000000
  0.000000 -0.055006 -0.019596      2.000000
  0.000000 -0.055006 -0.039191      2.000000
  0.000000 -0.055006 -0.058787      2.000000
  0.000000 -0.055006 -0.078382      2.000000
  0.000000 -0.055006 -0.097978      2.000000
  0.000000 -0.055006 -0.117573      2.000000
  0.000000 -0.055006 -0.137169      2.000000
  0.000000 -0.055006 -0.156764      2.000000
  0.000000 -0.055006  0.137169      2.000000
  0.000000 -0.055006  0.117573      2.000000
  0.000000 -0.055006  0.097978      2.000000
  0.000000 -0.055006  0.078382      2.000000
  0.000000 -0.055006  0.058787      2.000000
  0.000000 -0.055006  0.039191      2.000000
  0.000000 -0.055006  0.019596      2.000000
  0.000000 -0.082509  0.000000      2.000000
  0.000000 -0.082509 -0.019596      2.000000
  0.000000 -0.082509 -0.039191      2.000000
  0.000000 -0.082509 -0.058787      2.000000
  0.000000 -0.082509 -0.078382      2.000000
  0.000000 -0.082509 -0.097978      2.000000
  0.000000 -0.082509 -0.117573      2.000000
  0.000000 -0.082509 -0.137169      2.000000
  0.000000 -0.082509 -0.156764      2.000000
  0.000000 -0.082509  0.137169      2.000000
  0.000000 -0.082509  0.117573      2.000000
  0.000000 -0.082509  0.097978      2.000000
  0.000000 -0.082509  0.078382      2.000000
  0.000000 -0.082509  0.058787      2.000000
  0.000000 -0.082509  0.039191      2.000000
  0.000000 -0.082509  0.019596      2.000000
  0.000000 -0.110012  0.000000      1.000000
  0.000000 -0.110012 -0.019596      2.000000
  0.000000 -0.110012 -0.039191      2.000000
[...]
 -0.110012 -0.192522  0.117573      2.000000
 -0.110012 -0.192522  0.097978      2.000000
 -0.110012 -0.192522  0.078382      2.000000
 -0.110012 -0.192522  0.058787      2.000000
 -0.110012 -0.192522  0.039191      2.000000
 -0.110012 -0.192522  0.019596      2.000000
 -0.110012 -0.220025  0.000000      1.000000
 -0.110012 -0.220025 -0.019596      2.000000
 -0.110012 -0.220025 -0.039191      2.000000
 -0.110012 -0.220025 -0.058787      2.000000
 -0.110012 -0.220025 -0.078382      2.000000
 -0.110012 -0.220025 -0.097978      2.000000
 -0.110012 -0.220025 -0.117573      2.000000
 -0.110012 -0.220025 -0.137169      2.000000
 -0.110012 -0.220025 -0.156764      1.000000

 SYSTEM =  unknown system
 POSCAR =  Ir2 O4

 Startparameter for this run:
   NWRITE =      2    write-flag & timer
   PREC   = accura    normal or accurate (medium, high low for compatibility)
   ISTART =      0    job   : 0-new  1-cont  2-samecut
   ICHARG =      2    charge: 1-file 2-atom 10-const
   ISPIN  =      2    spin polarized calculation?
   LNONCOLLINEAR =      F non collinear calculations
   LSORBIT =      F    spin-orbit coupling
   INIWAV =      1    electr: 0-lowe 1-rand  2-diag
   LASPH  =      T    aspherical Exc in radial PAW
 Electronic Relaxation 1
[...]
  277          m_sumb_d                              0.000079                          2   4
  278        chggra                                0.003746                            1   3
  279          fft3d_mpi                             0.002529                          3   4
  280            fftbas_plan_mpi                       0.002344                        3   5
  281              dfftw_execute                         0.000521                      9   6
  282              map_backward                          0.000404                      2   6
  283                map_gather                            0.000030                    1   7
  284                m_alltoallv_z                         0.000260                    1   7
  285                map_scatter                           0.000074                    1   7
  286              map_forward                           0.000615                      4   6
  287                map_gather                            0.000092                    2   7
  288                m_alltoallv_z                         0.000364                    2   7
  289                map_scatter                           0.000085                    2   7
  290          m_sumb_d                              0.000034                          2   4
  291          pothar                                0.000243                          1   4
  292            m_sumb_d                              0.000044                        1   5
  293        brmix                                 0.002785                            1   3
  294          m_sumb_d                              0.000083                          6   4
  295          brpre                                 0.000029                          2   4
  296          setg0                                 0.000766                          1   4
  297          broyd                                 0.001312                          1   4
  298            m_sumb_d                              0.000251                       15   5
  299            brget                                 0.000212                       49   5
  300            brsav                                 0.000078                       13   5
  301        m_bcast_d                             0.000038                            2   3
  302      potlok                                0.064046                              1   2
  303        fft3d_mpi                             0.022043                           26   3
  304          fftbas_plan_mpi                       0.019596                         26   4
  305            dfftw_execute                         0.004602                       78   5
  306            map_forward                           0.004353                       28   5
  307              map_gather                            0.000759                     16   6
  308              m_alltoallv_z                         0.002392                     16   6
  309              map_scatter                           0.000660                     16   6
  310            map_backward                          0.004011                       24   5
  311              map_gather                            0.000667                     12   6
  312              m_alltoallv_z                         0.001996                     12   6
  313              map_scatter                           0.000913                     12   6
  314        m_sumb_d                              0.000097                            5   3
  315        pothar                                0.000240                            1   3
  316          m_sumb_d                              0.000038                          1   4
  317        m_bcast_d                             0.000288                            2   3
  318      potlok_metagga                        0.000003                              1   2
  319      set_dd_magatom                        0.000003                              1   2
  320      set_dd_paw                            1.890236                              1   2
  321        set_rsgf_all                          0.000004                            1   3
  322        m_sumb_d                              1.890060                            7   3
  323      densta                                0.118948                              1   2
  324        m_sumb_d                              0.016215                           38   3

 Flat profile

 fft3d                                 139.763834      301548
 pdssyex_zheevx                        124.455654       20072
 eddav                                 117.382579           5
 m_alltoall_d                           62.035535      667282
 total_time                             52.319262           1
 m_sumb_d                               51.074468      260988
 orth1                                  19.922379      182530
 gemm                                   14.948352      598932
 sphpro_fast                            12.735924           2
 fftwav                                 12.255663      177022
 vhamil                                 10.548078      124526
 vnlac0                                 10.218779       99822
 proj1                                   9.304240       87470
 fftext_mpi                              8.703162      124526
 eccp                                    7.995720      112576
 w1_copy                                 7.900777      299466
 hamiltmu                                7.289963       76662
 work_mul_crexp                          6.773352      598932
 redis_pw                                6.653028      221130
 i2                                      5.966768       24568
 redis_proj                              5.690758      271680
 m_bcast_z                               5.653447      101502
 phase                                   5.521715       21617
 lincom                                  5.480064       33968
 overl                                   4.554878      114996
 w1_daxpy                                3.707394       95456
 newband                                 3.555277       96734
 i3                                      3.451652       24568
 overl1                                  3.305961      145956
 crexp_mul_wave                          3.157396      174940
 w1_dscal                                3.147434      116800
 kinhamil                                2.980351      124526
 eddiag                                  2.870557           8
 zhegv                                   2.675578       23024
 fftwav_mpi                              2.192439      177022
 fft3d_mpi                               2.022952      124852
 fornl                                   1.881121           1
 cnorma                                  1.862800       72432
 apply_precond                           1.822639      107766
 eddrmm                                  1.742743           8
 m_bcast_d                               1.560509      104213
 w1_gemv                                 1.504213       92268
 choleski                                1.437498       13896
 eccp_nl                                 1.371299       72432
 orthch                                  1.344825           9
 pw_charge                               1.163208       27792
 setup_precond                           1.157308       40144
 w1_projall                              1.034431       61222
 elmin                                   0.897098           1
 densta                                  0.856213          14
 i1                                      0.783289       24568
 spher                                   0.676836           1
 hamilt_local                            0.603482       24704
 w1_gaxpy                                0.554897       46408
 w1_dot                                  0.550651       24704
 soft_charge                             0.544906           9
 truncate_high_frequency_w1              0.488297      139966
 potlok                                  0.421125          10
 depsum                                  0.140708           9
 setdij_                                 0.093544          18
 fftbas_plan_mpi                         0.088917         326
 augmentation_charge                     0.077771           9
 dfftw_execute                           0.066208         978
 m_alltoallv_z                           0.065920         364
 shift_bands_between_low_high            0.047583       12352
 force_and_stress                        0.043167           1
 proj                                    0.039740         772
 map_scatter                             0.019801         364
 map_gather                              0.015994         364
 setg0                                   0.006894          11
 map_backward                            0.006529         338
 map_forward                             0.006170         314
 broyd                                   0.005671           9
 fewald                                  0.005372           1
 brmix                                   0.005226           9
 set_dd_paw                              0.002647          11
 pothar                                  0.002469          11
 forhar                                  0.001642           2
 set_charge                              0.001394           9
 rsp                                     0.001322           1
 brget                                   0.001100         255
 brgrid                                  0.001006           1
 stufak                                  0.001002           1
 chggra                                  0.000939           1
 forloc                                  0.000906           1
 brsav                                   0.000735          82
 fft_gq                                  0.000554           9
 brpre                                   0.000386          18
 crpa_reader                             0.000226           1
 fordep                                  0.000192           1
 set_rsgf_all                            0.000056          11
 rcp                                     0.000053           1
 vectorpot                               0.000052          10
 potlok_metagga                          0.000043          10
 set_dd_magatom                          0.000043          11
 FERMAT_RAZOR                            0.000021           1
 rotate_active_occupied_orbital          0.000011           1
 redis_pw_over_bands                     0.000003           1
  summed up times    773.226778030396

 Accumulative profile

 total_time                            773.226778           1
 elmin                                 689.813657           1
 eddav                                 363.094094           5
 eddrmm                                141.606483           8
 fft3d                                 139.763834      301548
 eddiag                                133.948710           8
 pdssyex_zheevx                        124.455675       20072
 hamiltmu                              109.782675       76662
 fftwav_mpi                             94.059412      177022
 fftwav                                 91.866974      177022
 kinhamil                               73.822688      124526
 fftext_mpi                             70.842336      124526
 fft3d_mpi                              62.445014      124852
 m_alltoall_d                           62.035535      667282
 m_sumb_d                               51.074468      260988
 redis_pw                               44.121367      221130
 i2                                     39.568718       24568
 newband                                35.728090       96734
 vnlac0                                 31.940483       99822
 redis_proj                             30.257954      271680
 orthch                                 21.965651           9
 set_dd_paw                             20.757020          11
 orth1                                  19.922379      182530
 i3                                     18.215104       24568
 hamilt_local                           17.056542       24704
 gemm                                   14.948352      598932
 set_charge                             13.714291           9
 soft_charge                            13.475401           9
 w1_projall                             13.192868       61222
 sphpro_fast                            12.805666           2
 proj1                                  12.461636       87470
 vhamil                                 10.548078      124526
 eccp                                    7.995720      112576
 w1_copy                                 7.900777      299466
 work_mul_crexp                          6.773352      598932
 m_bcast_z                               5.653447      101502
 force_and_stress                        5.598988           1
 phase                                   5.521715       21617
 lincom                                  5.480064       33968
 overl                                   4.554878      114996
 w1_daxpy                                3.707394       95456
 overl1                                  3.305961      145956
 cnorma                                  3.234099       72432
 crexp_mul_wave                          3.157396      174940
 w1_dscal                                3.147434      116800
 zhegv                                   2.675578       23024
 w1_gemv                                 2.175650       92268
 fornl                                   2.075867           1
 apply_precond                           1.822639      107766
 i1                                      1.606444       24568
 m_bcast_d                               1.560509      104213
 choleski                                1.437498       13896
 eccp_nl                                 1.371299       72432
 pw_charge                               1.163208       27792
 setup_precond                           1.157308       40144
 densta                                  1.040531          14
 spher                                   0.676836           1
 potlok                                  0.656326          10
 w1_gaxpy                                0.554897       46408
 w1_dot                                  0.550651       24704
 truncate_high_frequency_w1              0.488297      139966
 proj                                    0.342938         772
 fftbas_plan_mpi                         0.269538         326
 depsum                                  0.142955           9
 setdij_                                 0.096822          18
 augmentation_charge                     0.094541           9
 dfftw_execute                           0.066208         978
 m_alltoallv_z                           0.065920         364
 map_backward                            0.059993         338
 map_forward                             0.054420         314
 shift_bands_between_low_high            0.047583       12352
 fordep                                  0.030362           1
 brmix                                   0.022945           9
 fft_gq                                  0.020299           9
 map_scatter                             0.019801         364
 map_gather                              0.015994         364
 broyd                                   0.009192           9
 setg0                                   0.006894          11
 fewald                                  0.006873           1
 chggra                                  0.003746           1
 pothar                                  0.002852          11
 forhar                                  0.001721           2
 rsp                                     0.001322           1
 brget                                   0.001100         255
 brgrid                                  0.001006           1
 stufak                                  0.001002           1
 forloc                                  0.000928           1
 brsav                                   0.000735          82
 brpre                                   0.000386          18
 crpa_reader                             0.000226           1
 set_rsgf_all                            0.000056          11
 rcp                                     0.000053           1
 vectorpot                               0.000052          10
 potlok_metagga                          0.000043          10
 set_dd_magatom                          0.000043          11
 FERMAT_RAZOR                            0.000021           1
 rotate_active_occupied_orbital          0.000011           1
 redis_pw_over_bands                     0.000003           1

Profiling took  15.712640 19.437018  0.006002  0.004704 seconds
Profiling took  17.040323 seconds